21
generated from SELFIES
F      2.080885     1.456807    -0.226222
C      0.995848     0.723596     0.013049
C     -0.138185     1.333929     0.548154
O     -0.161923     2.675337     0.853587
C      0.057801     3.565729    -0.133440
O      0.205087     3.313783    -1.283552
X      0.055591     4.248790     0.176273
C     -1.265527     0.551627     0.788145
F     -2.362303     1.124059     1.280420
C     -1.271485    -0.816607     0.524844
O     -2.393203    -1.561150     0.811534
C     -2.989653    -2.238833    -0.189070
O     -2.681591    -2.211539    -1.334319
X     -3.558764    -2.624921     0.110178
C     -0.119061    -1.399209    -0.000872
F     -0.090697    -2.712099    -0.220853
C      1.019443    -0.641860    -0.267146
O      2.134251    -1.248199    -0.798976
C      3.278675    -1.214993    -0.091387
O      3.413282    -0.765651     0.999193
X      3.810267    -1.543791    -0.505878
   0    1 S
   1    2 A
   2    3 S
   3    4 S
   4    5 D
   4    6 S
   2    7 A
   7    8 S
   7    9 A
   9   10 S
  10   11 S
  11   12 D
  11   13 S
   9   14 A
  14   15 S
  14   16 A
  16   17 S
  17   18 S
  18   19 D
  18   20 S
  16    1 A
