9
generated from SELFIES
N      0.646564     0.722208     0.023127
C      1.069129    -0.565238     0.005528
X      1.793420    -0.759791     0.012775
N      0.072050    -1.400668    -0.024964
C     -1.051608    -0.636821    -0.027616
X     -1.731854    -0.952268    -0.043685
C     -0.719389     0.686191     0.001969
X     -1.137593     1.308749     0.007272
H      1.218526     1.550251     0.047104
   0    1 A
   1    2 S
   1    3 A
   3    4 A
   4    5 S
   4    6 A
   6    7 S
   6    0 A
   0    8 S
