24
generated from SELFIES
C     -2.476517     0.439024     0.073690
X     -2.898963    -0.171745    -0.031194
C     -1.104374     0.031446     0.602851
N     -0.512183    -1.032318    -0.206689
C      0.608526    -1.608805     0.518320
C      1.630810    -0.522605     0.918648
C      1.237235     0.770303     0.197823
C     -0.131863     1.227080     0.709644
C      1.119589     0.477169    -1.299890
X      1.765736     0.192216    -1.552466
C     -0.038047    -0.527610    -1.485143
H     -2.966999     1.088312     0.795284
H     -2.400148     0.975811    -0.868987
H     -1.256014    -0.406273     1.596362
H      1.068538    -2.359452    -0.127964
H      0.215799    -2.122692     1.399519
H      1.620268    -0.356135     1.997289
H      2.642098    -0.817504     0.635063
H      1.987482     1.547005     0.375263
H     -0.485172     2.063118     0.102452
H     -0.056140     1.571730     1.742209
H      0.924349     1.400063    -1.847850
H     -0.879363    -0.066748    -2.002386
H      0.281435    -1.387238    -2.079842
   0    1 S
   0    2 S
   2    3 S
   3    4 S
   4    5 S
   5    6 S
   6    7 S
   6    8 S
   8    9 S
   8   10 S
   7    2 S
  10    3 S
   0   11 S
   0   12 S
   2   13 S
   4   14 S
   4   15 S
   5   16 S
   5   17 S
   6   18 S
   7   19 S
   7   20 S
   8   21 S
  10   22 S
  10   23 S
