20
generated from SELFIES
C     -0.745712     0.608104    -0.349561
C      0.629703     0.755103    -0.233390
C      1.443276    -0.313047     0.112524
O      2.791743    -0.277709     0.256276
C      3.453782     0.946379     0.048283
X      3.218626     1.471393     0.529492
C      0.824280    -1.551276     0.338528
F      1.577625    -2.611409     0.674310
C     -0.543510    -1.697240     0.222477
F     -1.102735    -2.897898     0.446838
C     -1.362774    -0.613066    -0.125051
O     -2.692906    -0.864951    -0.208774
C     -3.553464     0.195824    -0.546496
X     -3.399657     0.468564    -1.228007
H     -1.330202     1.471763    -0.620462
H      1.057285     1.726345    -0.419395
H      3.322517     1.304565    -0.977646
H      4.507384     0.739924     0.226248
H     -3.503347     1.003322     0.190783
H     -4.554486    -0.231311    -0.546268
   0    1 A
   1    2 A
   2    3 S
   3    4 S
   4    5 S
   2    6 A
   6    7 S
   6    8 A
   8    9 S
   8   10 A
  10   11 S
  11   12 S
  12   13 S
  10    0 A
   0   14 S
   1   15 S
   4   16 S
   4   17 S
  12   18 S
  12   19 S
