13
generated from SELFIES
S      2.784164    -0.115399    -0.576474
C      1.047413    -0.072992    -0.241006
C      0.493530     0.873625     0.609356
C     -0.869900     0.867480     0.842451
X     -1.166667     1.380230     1.302361
C     -1.681650    -0.074548     0.233828
C     -1.123846    -1.017388    -0.614534
C      0.236884    -1.020404    -0.854318
X      0.544634    -1.528335    -1.312352
H      3.103945     0.922910     0.195408
H      1.122261     1.611780     1.087197
H     -2.744976    -0.074080     0.419790
H     -1.750430    -1.755321    -1.092820
   0    1 S
   1    2 A
   2    3 A
   3    4 S
   3    5 A
   5    6 A
   6    7 A
   7    8 S
   7    1 A
   0    9 S
   2   10 S
   5   11 S
   6   12 S
