24
generated from SELFIES
F      4.923411     0.883913     0.090591
C      3.707426     0.333181     0.054633
C      3.567442    -1.054817     0.099730
F      4.649207    -1.833735     0.178885
C      2.310595    -1.625920     0.062631
X      2.232775    -2.371482     0.086733
C      1.178097    -0.819993    -0.019882
C      1.318527     0.572231    -0.065115
C      2.589488     1.139758    -0.027229
X      2.661782     1.885868    -0.051607
C      0.149114     1.478574    -0.153073
O      0.270645     2.683956    -0.192233
C     -1.178097     0.819916    -0.190183
C     -2.310560     1.625873    -0.272694
X     -2.232513     2.371412    -0.296784
C     -3.567460     1.054908    -0.309801
F     -4.649183     1.833948    -0.388958
C     -3.707445    -0.333037    -0.264708
F     -4.923291    -0.884100    -0.300648
C     -2.589501    -1.139719    -0.182843
X     -2.662138    -1.885796    -0.158482
C     -1.318533    -0.572317    -0.144951
C     -0.149112    -1.478629    -0.056993
O     -0.270625    -2.684015    -0.017831
   0    1 S
   1    2 A
   2    3 S
   2    4 A
   4    5 S
   4    6 A
   6    7 A
   7    8 A
   8    9 S
   7   10 S
  10   11 D
  10   12 S
  12   13 A
  13   14 S
  13   15 A
  15   16 S
  15   17 A
  17   18 S
  17   19 A
  19   20 S
  19   21 A
  21   22 S
  22   23 D
   8    1 A
  22    6 S
  21   12 A
