21
generated from SELFIES
F     -2.672094     0.455176    -0.008116
C     -1.341755     0.222184    -0.003471
C     -0.898315    -1.090970    -0.046308
C     -1.836563    -2.256096    -0.086156
X     -1.600247    -2.761942    -0.586929
C      0.480865    -1.274608    -0.040252
F      0.945956    -2.541970    -0.081738
C      1.396395    -0.234003     0.005139
C      2.875600    -0.460605     0.002767
X      3.032456    -1.184824     0.118537
C      0.865902     1.051717     0.045278
F      1.732862     2.086352     0.092030
C     -0.493657     1.324240     0.043029
C     -1.040170     2.716712     0.083402
X     -1.408943     2.865878    -0.552409
H     -1.867298    -2.742113     0.888857
H     -2.839872    -1.930244    -0.344400
H      3.348336     0.141467     0.776244
H      3.296497    -0.158708    -0.956017
H     -1.746375     2.817490     0.905812
H     -0.239428     3.439626     0.206208
   0    1 S
   1    2 A
   2    3 S
   3    4 S
   2    5 A
   5    6 S
   5    7 A
   7    8 S
   8    9 S
   7   10 A
  10   11 S
  10   12 A
  12   13 S
  13   14 S
  12    1 A
   3   15 S
   3   16 S
   8   17 S
   8   18 S
  13   19 S
  13   20 S
