25
generated from SELFIES
C     -3.163014    -0.504789     0.202460
X     -3.652716    -0.031393    -0.111528
C     -2.042201     0.266060     0.889700
C     -1.337445     1.259449    -0.035370
C     -0.653163     0.635865    -1.254238
C      0.404340    -0.422052    -0.934559
C      1.579758     0.116888    -0.124264
C      2.678771    -0.939893     0.052686
N      3.833300    -0.498936     0.815329
X      4.151160     0.092809     0.481708
H     -3.695946    -1.119296     0.924820
H     -2.770522    -1.158379    -0.572060
H     -2.462278     0.825583     1.729577
H     -1.316313    -0.437498     1.300533
H     -2.074161     1.982181    -0.396151
H     -0.599364     1.815420     0.546598
H     -1.410991     0.184963    -1.897683
H     -0.181835     1.440201    -1.825550
H     -0.052650    -1.254375    -0.396919
H      0.785874    -0.818450    -1.879402
H      1.237168     0.436028     0.863128
H      2.000750     0.990349    -0.631440
H      2.264570    -1.815195     0.561617
H      3.038491    -1.261707    -0.928881
H      3.546696    -0.206476     1.744237
   0    1 S
   0    2 S
   2    3 S
   3    4 S
   4    5 S
   5    6 S
   6    7 S
   7    8 S
   8    9 S
   0   10 S
   0   11 S
   2   12 S
   2   13 S
   3   14 S
   3   15 S
   4   16 S
   4   17 S
   5   18 S
   5   19 S
   6   20 S
   6   21 S
   7   22 S
   7   23 S
   8   24 S
