12
generated from SELFIES
F     -2.046009    -0.499996     0.708094
C     -1.057327    -0.161556    -0.169489
X     -1.376707    -0.053466    -0.839424
C     -0.165916     1.007639     0.277660
F     -0.301091     2.158184    -0.442200
X     -0.229300     1.175713     1.005832
C      1.069794     0.158031    -0.058208
F      2.019459     0.110881     0.920550
X      1.409931     0.365240    -0.693716
C      0.171287    -1.083311    -0.162826
X      0.268802    -1.523508    -0.762173
H      0.212935    -1.677640     0.747290
   0    1 S
   1    2 S
   1    3 S
   3    4 S
   3    5 S
   3    6 S
   6    7 S
   6    8 S
   6    9 S
   9   10 S
   9    1 S
   9   11 S
