29
generated from SELFIES
C      2.492679    -0.991861    -0.055704
C      1.445519     0.093153     0.185085
C      0.678560     0.482005    -1.085520
X      1.168764     0.647970    -1.628342
C     -0.180221     1.711484    -0.783914
C     -1.181997     1.374432     0.320162
X     -1.598332     1.979434     0.472273
C     -0.433328     0.942852     1.580873
C      0.426586    -0.283148     1.268487
X      0.792252    -0.494894     1.888125
C     -0.483776    -1.419784     0.805026
C     -1.234623    -0.992992    -0.454876
X     -1.677428    -1.553133    -0.684366
C     -0.231297    -0.652488    -1.555199
C     -2.088136     0.236285    -0.146659
H      3.029350    -1.204050     0.867046
H      2.047157    -1.917182    -0.407260
H      3.212089    -0.657249    -0.800302
H      1.985391     0.983826     0.532386
H     -0.713677     2.023019    -1.685199
H      0.455333     2.542549    -0.468369
H     -1.148021     0.704313     2.372198
H      0.197941     1.760687     1.936963
H      0.099849    -2.320205     0.606938
H     -1.197260    -1.659019     1.597595
H      0.358360    -1.534247    -1.811114
H     -0.763554    -0.340447    -2.457375
H     -2.817728    -0.001917     0.631108
H     -2.638932     0.541117    -1.039807
   0    1 S
   1    2 S
   2    3 S
   2    4 S
   4    5 S
   5    6 S
   5    7 S
   7    8 S
   8    9 S
   8   10 S
  10   11 S
  11   12 S
  11   13 S
  11   14 S
   8    1 S
  13    2 S
  14    5 S
   0   15 S
   0   16 S
   0   17 S
   1   18 S
   4   19 S
   4   20 S
   7   21 S
   7   22 S
  10   23 S
  10   24 S
  13   25 S
  13   26 S
  14   27 S
  14   28 S
