24
generated from SELFIES
Cl     2.775346     1.321009     0.315961
C      1.235358     0.580525     0.115406
C      0.112323     1.395873     0.002319
C      0.272381     2.899094    -0.069354
O      0.875938     3.437754    -0.964417
N     -0.291982     3.552770     0.963998
X     -0.277744     4.302634     0.963211
C     -1.137483     0.793882    -0.116735
Cl    -2.536829     1.775970    -0.301445
C     -1.280435    -0.592044    -0.129213
C     -2.664603    -1.202683    -0.165188
O     -3.483043    -0.979169     0.692134
N     -2.896415    -1.972044    -1.247216
X     -2.347852    -2.164453    -1.721091
C     -0.135449    -1.377458    -0.015347
Cl    -0.270866    -3.092037    -0.028047
C      1.130595    -0.808231     0.106469
C      2.343410    -1.691444     0.305460
O      2.449230    -2.439272     1.245429
N      3.257733    -1.583511    -0.679400
X      3.900798    -1.963087    -0.609475
H     -0.857148     3.080967     1.647705
H     -3.776085    -2.459776    -1.304411
H      3.191232    -0.877019    -1.390576
   0    1 S
   1    2 A
   2    3 S
   3    4 D
   3    5 S
   5    6 S
   2    7 A
   7    8 S
   7    9 A
   9   10 S
  10   11 D
  10   12 S
  12   13 S
   9   14 A
  14   15 S
  14   16 A
  16   17 S
  17   18 D
  17   19 S
  19   20 S
  16    1 A
   5   21 S
  12   22 S
  19   23 S
