22
generated from SELFIES
C     -2.839509     0.797785    -1.001787
C     -3.003142    -0.508994    -1.012324
X     -3.581983    -0.866796    -1.327634
S     -1.969901    -1.657115    -0.108931
C     -1.628567    -1.042726     1.522425
C     -0.468453    -0.398052     1.628064
X     -0.205939    -0.106387     2.267218
C      0.303819    -0.330992     0.396644
C      1.633759     0.229130     0.368069
S      2.377872     0.862642     1.810564
C      3.796866     1.284772     0.943052
X      4.366141     1.609263     1.307923
C      3.707657     0.960479    -0.372928
C      2.477560     0.360126    -0.702705
C     -0.390324    -0.832423    -0.638990
H     -2.013043     1.263696    -0.492261
H     -3.533614     1.452162    -1.501979
H     -3.459961    -2.148064     0.461777
H     -2.362593    -1.246055     2.275698
H      4.492644     1.143473    -1.085074
H      2.222593     0.035842    -1.695264
H     -0.028302    -0.972341    -1.639974
   0    1 D
   1    2 S
   1    3 S
   3    4 S
   4    5 D
   5    6 S
   5    7 S
   7    8 S
   8    9 A
   9   10 A
  10   11 S
  10   12 A
  12   13 A
   7   14 D
  14    3 S
   8   13 A
   0   15 S
   0   16 S
   3   17 S
   4   18 S
  12   19 S
  13   20 S
  14   21 S
