24
generated from SELFIES
F     -2.366307     1.298608     0.415343
C     -1.174162     0.684722     0.217454
C     -1.238528    -0.662944    -0.182235
O     -2.487210    -1.153648    -0.311806
C     -2.690624    -2.495960    -0.704826
X     -2.408618    -2.630303    -1.386680
C     -0.035073    -1.318717    -0.392822
F      0.002556    -2.617093    -0.779820
C      1.214420    -0.694191    -0.223038
O      2.278046    -1.484323    -0.470135
C      3.590942    -0.977450    -0.339694
X      3.716416    -0.409610    -0.813312
C      1.208856     0.635006     0.171798
F      2.363311     1.319774     0.360139
C      0.023821     1.358070     0.402034
O      0.209262     2.638459     0.780088
C     -0.900197     3.472785     1.046950
X     -1.316197     3.207660     1.611885
H     -3.771801    -2.621197    -0.726979
H     -2.256581    -3.195733     0.012670
H      3.797206    -0.651267     0.681979
H      4.240829    -1.813156    -0.593091
H     -0.468730     4.431067     1.330923
H     -1.527780     3.602618     0.162625
   0    1 S
   1    2 A
   2    3 S
   3    4 S
   4    5 S
   2    6 A
   6    7 S
   6    8 A
   8    9 S
   9   10 S
  10   11 S
   8   12 A
  12   13 S
  12   14 A
  14   15 S
  15   16 S
  16   17 S
  14    1 A
   4   18 S
   4   19 S
  10   20 S
  10   21 S
  16   22 S
  16   23 S
